
;this file is automatically generated: Thu Mar 24 18:16:58 GMT 2016

;declarations generated

(declare-fun type_7df080f8_7f3f_436d_af0d_977ed80942aa_D ( Int) Bool )
(declare-fun oclSelect ( Int Bool) Int )
(declare-fun type_7d1037b2_f80d_4023_b35a_faf1628a6773_C ( Int) Bool )
(declare-fun obj_7f00660e_c913_4541_a0ee_3743fe59df95 ( Int) Int )
(declare-fun oclExcludes ( Int Int) Bool )
(declare-fun type_dcf0da0a_efae_466d_80d3_607a57fed197_A ( Int) Bool )
(declare-fun container_ ( Int) Int )
(declare-fun Cardinality ( Int) Int )
(declare-fun oclIncludes ( Int Int) Bool )
(declare-fun aux4 () Int )
(declare-fun aux2 () Int )
(declare-fun aux3 () Int )
(declare-fun aux0 () Int )
(declare-fun aux1 () Int )
(declare-fun type_b9593f72_ece5_4a44_b4f1_d6d160857009_B ( Int) Bool )
(declare-fun weight2 () Int )
(declare-fun weight3 () Int )
(declare-fun weight0 () Int )
(declare-fun weight1 () Int )
(declare-fun weight4 () Int )
(declare-fun ObjAt ( Int Int) Int )

;formula(s) generated
(assert (and (>= aux0 0) (<= aux0 1)))
(assert (or (or (forall ((b Int)) (=> (and ( type_b9593f72_ece5_4a44_b4f1_d6d160857009_B b )  ( type_dcf0da0a_efae_466d_80d3_607a57fed197_A b ) ) (forall ((c Int)) (=> (and ( type_7d1037b2_f80d_4023_b35a_faf1628a6773_C c )  ( type_dcf0da0a_efae_466d_80d3_607a57fed197_A c ) ) (not (= ( obj_7f00660e_c913_4541_a0ee_3743fe59df95 b )  ( obj_7f00660e_c913_4541_a0ee_3743fe59df95 c ) ) ))))) (and (= aux0 1) true)) (and (= aux0 0) false)))
(assert (and (=> (= aux0 0) (= weight0 7)) (=> (= aux0 1) (= weight0 0))))
(assert (and (>= aux1 0) (<= aux1 1)))
(assert (and (>= aux2 0) (<= aux2 1)))
(assert (and (>= aux3 0) (<= aux3 1)))
(assert (and (>= aux4 0) (<= aux4 1)))
(assert (or (or (exists ((p Int)) ( type_dcf0da0a_efae_466d_80d3_607a57fed197_A ( obj_7f00660e_c913_4541_a0ee_3743fe59df95 p )  ) ) (and (= aux1 1) true)) (and (= aux1 0) false)))
(assert (and (=> (= aux1 0) (= weight1 10)) (=> (= aux1 1) (= weight1 0))))
(assert (or (or (exists ((p Int)) (and ( type_b9593f72_ece5_4a44_b4f1_d6d160857009_B ( obj_7f00660e_c913_4541_a0ee_3743fe59df95 p )  )  ( type_dcf0da0a_efae_466d_80d3_607a57fed197_A ( obj_7f00660e_c913_4541_a0ee_3743fe59df95 p )  ) )) (and (= aux2 1) true)) (and (= aux2 0) false)))
(assert (and (=> (= aux2 0) (= weight2 5)) (=> (= aux2 1) (= weight2 0))))
(assert (or (or (exists ((p Int)) (and ( type_7d1037b2_f80d_4023_b35a_faf1628a6773_C ( obj_7f00660e_c913_4541_a0ee_3743fe59df95 p )  )  ( type_dcf0da0a_efae_466d_80d3_607a57fed197_A ( obj_7f00660e_c913_4541_a0ee_3743fe59df95 p )  ) )) (and (= aux3 1) true)) (and (= aux3 0) false)))
(assert (and (=> (= aux3 0) (= weight3 6)) (=> (= aux3 1) (= weight3 0))))
(assert (or (or (exists ((p Int)) (and (and (and ( type_7df080f8_7f3f_436d_af0d_977ed80942aa_D ( obj_7f00660e_c913_4541_a0ee_3743fe59df95 p )  )  ( type_dcf0da0a_efae_466d_80d3_607a57fed197_A ( obj_7f00660e_c913_4541_a0ee_3743fe59df95 p )  ) ) ( type_b9593f72_ece5_4a44_b4f1_d6d160857009_B ( obj_7f00660e_c913_4541_a0ee_3743fe59df95 p )  ) ) ( type_7d1037b2_f80d_4023_b35a_faf1628a6773_C ( obj_7f00660e_c913_4541_a0ee_3743fe59df95 p )  ) )) (and (= aux4 1) true)) (and (= aux4 0) false)))
(assert (and (=> (= aux4 0) (= weight4 10)) (=> (= aux4 1) (= weight4 0))))
(assert (= (+ (+ (+ (+ weight0 weight1) weight2) weight3) weight4) 31))

(assert (not (and (and (and (and (= weight0 0) (= weight1 10)) (= weight2 5)) (= weight3 6)) (= weight4 10)) ))
